presolving:
(round 1, fast)       401 del vars, 0 del conss, 0 add conss, 0 chg bounds, 0 chg sides, 0 chg coeffs, 0 upgd conss, 0 impls, 800 clqs
(round 2, exhaustive) 401 del vars, 0 del conss, 0 add conss, 0 chg bounds, 0 chg sides, 0 chg coeffs, 800 upgd conss, 0 impls, 800 clqs
   (6.0s) probing: 51/159600 (0.0%) - 0 fixings, 0 aggregations, 0 implications, 0 bound changes
   (6.0s) probing aborted: 50/50 successive totally useless probings
   Deactivated symmetry handling methods, since SCIP was built without symmetry detector (SYM=none).
presolving (3 rounds: 3 fast, 2 medium, 2 exhaustive):
 401 deleted vars, 0 deleted constraints, 0 added constraints, 0 tightened bounds, 0 added holes, 0 changed sides, 0 changed coefficients
 0 implications, 800 cliques
presolved problem has 159999 variables (159600 bin, 0 int, 0 impl, 399 cont) and 159602 constraints
    800 constraints of type <setppc>
 158802 constraints of type <linear>
Presolving Time: 6.00

 time | node  | left  |LP iter|LP it/n|mem/heur|mdpt |vars |cons |rows |cuts |sepa|confs|strbr|  dualbound   | primalbound  |  gap   | compl. 
p16.0s|     1 |     0 |   817 |     - | vbounds|   0 | 159k| 159k| 159k|   0 |  0 |   5 |   0 | 0.000000e+00 | 2.155699e+05 |    Inf | unknown
 17.0s|     1 |     0 |  2093 |     - |  1154M |   0 | 159k| 159k| 159k|   0 |  0 |   5 |   0 | 1.236546e+04 | 2.155699e+05 |1643.32%| unknown
 22.0s|     1 |     0 |  2480 |     - |  1183M |   0 | 159k| 159k| 159k| 252 |  1 |   5 |   0 | 1.296620e+04 | 2.155699e+05 |1562.55%| unknown
 28.0s|     1 |     0 |  2568 |     - |  1209M |   0 | 159k| 159k| 159k| 339 |  2 |   5 |   0 | 1.302660e+04 | 2.155699e+05 |1554.84%| unknown
 33.0s|     1 |     0 |  2571 |     - |  1230M |   0 | 159k| 159k| 159k| 341 |  3 |   5 |   0 | 1.302660e+04 | 2.155699e+05 |1554.84%| unknown
 39.0s|     1 |     0 |  2633 |     - |  1246M |   0 | 159k| 159k| 159k| 369 |  4 |   5 |   0 | 1.304039e+04 | 2.155699e+05 |1553.09%| unknown
 46.0s|     1 |     0 |  2973 |     - |  1276M |   0 | 159k| 159k| 160k| 533 |  5 |   5 |   0 | 1.363979e+04 | 2.155699e+05 |1480.45%| unknown
 54.0s|     1 |     0 |  3060 |     - |  1312M |   0 | 159k| 159k| 160k| 590 |  6 |   5 |   0 | 1.365848e+04 | 2.155699e+05 |1478.29%| unknown
 61.0s|     1 |     0 |  3096 |     - |  1338M |   0 | 159k| 159k| 160k| 606 |  7 |   5 |   0 | 1.366010e+04 | 2.155699e+05 |1478.10%| unknown
 69.0s|     1 |     0 |  3195 |     - |  1356M |   0 | 159k| 159k| 160k| 634 |  8 |   5 |   0 | 1.368496e+04 | 2.155699e+05 |1475.23%| unknown
 76.0s|     1 |     0 |  3280 |     - |  1377M |   0 | 159k| 159k| 160k| 669 |  9 |   5 |   0 | 1.369009e+04 | 2.155699e+05 |1474.64%| unknown
 83.0s|     1 |     0 |  3351 |     - |  1398M |   0 | 159k| 159k| 160k| 695 | 10 |   5 |   0 | 1.371849e+04 | 2.155699e+05 |1471.38%| unknown
 89.0s|     1 |     0 |  3417 |     - |  1415M |   0 | 159k| 159k| 160k| 714 | 11 |   5 |   0 | 1.373531e+04 | 2.155699e+05 |1469.46%| unknown
 98.0s|     1 |     0 |  3500 |     - |  1436M |   0 | 159k| 159k| 160k| 726 | 12 |   5 |   0 | 1.375128e+04 | 2.155699e+05 |1467.64%| unknown
  105s|     1 |     0 |  3566 |     - |  1452M |   0 | 159k| 159k| 160k| 740 | 13 |   5 |   0 | 1.376960e+04 | 2.155699e+05 |1465.55%| unknown
 time | node  | left  |LP iter|LP it/n|mem/heur|mdpt |vars |cons |rows |cuts |sepa|confs|strbr|  dualbound   | primalbound  |  gap   | compl. 
  111s|     1 |     0 |  3635 |     - |  1468M |   0 | 159k| 159k| 160k| 764 | 14 |   5 |   0 | 1.378030e+04 | 2.155699e+05 |1464.33%| unknown
  158s|     1 |     0 |  3713 |     - |  1486M |   0 | 159k| 159k| 160k| 788 | 15 |   5 |   0 | 1.379445e+04 | 2.155699e+05 |1462.73%| unknown
  165s|     1 |     0 |  3797 |     - |  1504M |   0 | 159k| 159k| 160k| 812 | 16 |   5 |   0 | 1.381053e+04 | 2.155699e+05 |1460.91%| unknown
  172s|     1 |     0 |  3813 |     - |  1519M |   0 | 159k| 159k| 160k| 824 | 17 |   5 |   0 | 1.381053e+04 | 2.155699e+05 |1460.91%| unknown
  179s|     1 |     0 |  3949 |     - |  1535M |   0 | 159k| 159k| 160k| 847 | 18 |   5 |   0 | 1.388998e+04 | 2.155699e+05 |1451.98%| unknown
  188s|     1 |     0 |  4133 |     - |  1559M |   0 | 159k| 159k| 160k| 880 | 19 |   5 |   0 | 1.392764e+04 | 2.155699e+05 |1447.78%| unknown
  196s|     1 |     0 |  4201 |     - |  1582M |   0 | 159k| 159k| 160k| 907 | 20 |   5 |   0 | 1.394350e+04 | 2.155699e+05 |1446.02%| unknown
  250s|     1 |     0 |  4266 |     - |  1584M |   0 | 159k| 159k| 160k| 928 | 21 |   5 |   0 | 1.394714e+04 | 2.155699e+05 |1445.62%| unknown
  257s|     1 |     0 |  4312 |     - |  1584M |   0 | 159k| 159k| 160k| 940 | 22 |   5 |   0 | 1.395341e+04 | 2.155699e+05 |1444.93%| unknown
  264s|     1 |     0 |  4319 |     - |  1585M |   0 | 159k| 159k| 160k| 947 | 23 |   5 |   0 | 1.395341e+04 | 2.155699e+05 |1444.93%| unknown
  271s|     1 |     0 |  4385 |     - |  1586M |   0 | 159k| 159k| 160k| 960 | 24 |   5 |   0 | 1.396128e+04 | 2.155699e+05 |1444.06%| unknown
  278s|     1 |     0 |  4474 |     - |  1586M |   0 | 159k| 159k| 160k| 979 | 25 |   5 |   0 | 1.396862e+04 | 2.155699e+05 |1443.24%| unknown
  285s|     1 |     0 |  4485 |     - |  1589M |   0 | 159k| 159k| 160k| 989 | 26 |   5 |   0 | 1.396862e+04 | 2.155699e+05 |1443.24%| unknown
  328s|     1 |     0 |  4500 |     - |  1589M |   0 | 159k| 159k| 160k|1001 | 27 |   5 |   0 | 1.396880e+04 | 2.155699e+05 |1443.22%| unknown
  334s|     1 |     0 |  4513 |     - |  1590M |   0 | 159k| 159k| 160k|1009 | 28 |   5 |   0 | 1.396896e+04 | 2.155699e+05 |1443.21%| unknown
 time | node  | left  |LP iter|LP it/n|mem/heur|mdpt |vars |cons |rows |cuts |sepa|confs|strbr|  dualbound   | primalbound  |  gap   | compl. 
  341s|     1 |     0 |  4543 |     - |  1590M |   0 | 159k| 159k| 160k|1035 | 29 |   5 |   0 | 1.396896e+04 | 2.155699e+05 |1443.21%| unknown
  347s|     1 |     0 |  4550 |     - |  1590M |   0 | 159k| 159k| 160k|1042 | 30 |   5 |   0 | 1.396896e+04 | 2.155699e+05 |1443.21%| unknown
  600s|     1 |     2 | 14937 |     - |  1612M |   0 | 159k| 159k| 160k|1042 | 32 |   5 |   0 | 1.396896e+04 | 2.155699e+05 |1443.21%| unknown

SCIP Status        : solving was interrupted [time limit reached]
Solving Time (sec) : 600.00
Solving Nodes      : 1
Primal Bound       : +2.15569944049763e+05 (1 solutions)
Dual Bound         : +1.39689590695988e+04
Gap                : 1443.21 %
Trying to solve problem with MTZ Solver Method...
Starting Solver, time limit setted to 10 minutes
Route:  [[0, 2], [1, 3], [2, 1], [3, 4], [4, 5], [5, 6], [6, 7], [7, 8], [8, 9], [9, 10], [10, 11], [11, 12], [12, 13], [13, 14], [14, 15], [15, 16], [16, 17], [17, 18], [18, 19], [19, 20], [20, 21], [21, 22], [22, 23], [23, 24], [24, 25], [25, 26], [26, 27], [27, 28], [28, 29], [29, 30], [30, 31], [31, 32], [32, 33], [33, 34], [34, 35], [35, 36], [36, 37], [37, 38], [38, 39], [39, 40], [40, 41], [41, 42], [42, 43], [43, 44], [44, 45], [45, 46], [46, 47], [47, 48], [48, 49], [49, 50], [50, 51], [51, 52], [52, 53], [53, 54], [54, 55], [55, 56], [56, 57], [57, 58], [58, 59], [59, 60], [60, 61], [61, 62], [62, 63], [63, 64], [64, 65], [65, 66], [66, 67], [67, 68], [68, 69], [69, 70], [70, 71], [71, 72], [72, 73], [73, 74], [74, 75], [75, 76], [76, 77], [77, 78], [78, 79], [79, 80], [80, 81], [81, 82], [82, 83], [83, 84], [84, 85], [85, 86], [86, 87], [87, 88], [88, 89], [89, 90], [90, 91], [91, 92], [92, 93], [93, 94], [94, 95], [95, 96], [96, 97], [97, 98], [98, 99], [99, 100], [100, 101], [101, 102], [102, 103], [103, 104], [104, 105], [105, 106], [106, 107], [107, 108], [108, 109], [109, 110], [110, 111], [111, 112], [112, 113], [113, 114], [114, 115], [115, 116], [116, 117], [117, 118], [118, 119], [119, 120], [120, 121], [121, 122], [122, 123], [123, 124], [124, 125], [125, 126], [126, 127], [127, 128], [128, 129], [129, 130], [130, 131], [131, 132], [132, 133], [133, 134], [134, 135], [135, 136], [136, 137], [137, 138], [138, 139], [139, 140], [140, 141], [141, 142], [142, 143], [143, 144], [144, 145], [145, 146], [146, 147], [147, 148], [148, 149], [149, 150], [150, 151], [151, 152], [152, 153], [153, 154], [154, 155], [155, 156], [156, 157], [157, 158], [158, 159], [159, 160], [160, 161], [161, 162], [162, 163], [163, 164], [164, 165], [165, 166], [166, 167], [167, 168], [168, 169], [169, 170], [170, 171], [171, 172], [172, 173], [173, 174], [174, 175], [175, 176], [176, 177], [177, 178], [178, 179], [179, 180], [180, 181], [181, 182], [182, 183], [183, 184], [184, 185], [185, 186], [186, 187], [187, 188], [188, 189], [189, 190], [190, 191], [191, 192], [192, 193], [193, 194], [194, 195], [195, 196], [196, 197], [197, 198], [198, 199], [199, 200], [200, 201], [201, 202], [202, 203], [203, 204], [204, 205], [205, 206], [206, 207], [207, 208], [208, 209], [209, 210], [210, 211], [211, 212], [212, 213], [213, 214], [214, 215], [215, 216], [216, 217], [217, 218], [218, 219], [219, 220], [220, 221], [221, 222], [222, 223], [223, 224], [224, 225], [225, 226], [226, 227], [227, 228], [228, 229], [229, 230], [230, 231], [231, 232], [232, 233], [233, 234], [234, 235], [235, 236], [236, 237], [237, 238], [238, 239], [239, 240], [240, 241], [241, 242], [242, 243], [243, 244], [244, 245], [245, 246], [246, 247], [247, 248], [248, 249], [249, 250], [250, 251], [251, 252], [252, 253], [253, 254], [254, 255], [255, 256], [256, 257], [257, 258], [258, 259], [259, 260], [260, 261], [261, 262], [262, 263], [263, 264], [264, 265], [265, 266], [266, 267], [267, 268], [268, 269], [269, 270], [270, 271], [271, 272], [272, 273], [273, 274], [274, 275], [275, 276], [276, 277], [277, 278], [278, 279], [279, 280], [280, 281], [281, 282], [282, 283], [283, 284], [284, 285], [285, 286], [286, 287], [287, 288], [288, 289], [289, 290], [290, 291], [291, 292], [292, 293], [293, 294], [294, 295], [295, 296], [296, 297], [297, 298], [298, 299], [299, 300], [300, 301], [301, 302], [302, 303], [303, 304], [304, 305], [305, 306], [306, 307], [307, 308], [308, 309], [309, 310], [310, 311], [311, 312], [312, 313], [313, 314], [314, 315], [315, 316], [316, 317], [317, 318], [318, 319], [319, 320], [320, 321], [321, 322], [322, 323], [323, 324], [324, 325], [325, 326], [326, 327], [327, 328], [328, 329], [329, 330], [330, 331], [331, 332], [332, 333], [333, 334], [334, 335], [335, 336], [336, 337], [337, 338], [338, 339], [339, 340], [340, 341], [341, 342], [342, 343], [343, 344], [344, 345], [345, 346], [346, 347], [347, 348], [348, 349], [349, 350], [350, 351], [351, 352], [352, 353], [353, 354], [354, 355], [355, 356], [356, 357], [357, 358], [358, 359], [359, 360], [360, 361], [361, 362], [362, 363], [363, 364], [364, 365], [365, 366], [366, 367], [367, 368], [368, 369], [369, 370], [370, 371], [371, 372], [372, 373], [373, 374], [374, 375], [375, 376], [376, 377], [377, 378], [378, 379], [379, 380], [380, 381], [381, 382], [382, 383], [383, 384], [384, 385], [385, 386], [386, 387], [387, 388], [388, 389], [389, 390], [390, 391], [391, 392], [392, 393], [393, 394], [394, 395], [395, 396], [396, 397], [397, 398], [398, 399], [399, 0]]
An Otimal Solution was found, yay!
Objective value: 215569.9
Problem solved in 14937 iterations
Problem solved in 1 nodes
Final Route Configuration succesfully created at:
data/routes/rd400.csv
